p cnf 70 35
-56 -22 14 0
5 -22 -45 0
21 28 17 0
64 36 21 0
-21 55 38 0
29 53 -9 0
-32 64 -43 0
32 22 -11 0
58 -50 65 0
31 18 -22 0
39 -6 61 0
54 -67 -38 0
-3 10 29 0
13 18 -69 0
-10 -41 28 0
56 -47 -8 0
51 32 -50 0
50 64 67 0
-35 32 -15 0
-26 35 -47 0
15 -42 -61 0
-64 -65 -24 0
12 -54 -22 0
-31 13 57 0
-64 37 69 0
2 -23 54 0
-21 -45 25 0
-40 54 59 0
-56 -10 58 0
19 -25 28 0
28 -15 -17 0
-32 -38 46 0
-68 -49 -54 0
52 -70 64 0
9 -65 6 0
